24
Combined adjusted structure (Global Offset: [ 4.7000000e+01 -1.2952602e-15  4.5100000e+01])
C       48.355309     0.337917    45.100000
C       47.970307    -1.004808    45.100000
C       46.614998    -1.342725    45.100000
C       45.644691    -0.337917    45.100000
C       46.029693     1.004808    45.100000
C       47.385002     1.342725    45.100000
H       49.405169     0.599676    45.100000
H       48.722889    -1.782854    45.100000
H       46.315779    -2.383014    45.100000
H       44.594831    -0.599676    45.100000
H       45.277111     1.782854    45.100000
H       47.684221     2.383014    45.100000
C       48.616794    -0.194397    50.000000
C       49.140039     1.100729    50.000000
C       50.523246     1.295126    50.000000
C       51.383206     0.194397    50.000000
C       50.859961    -1.100729    50.000000
C       49.476754    -1.295126    50.000000
H       47.545324    -0.344982    50.000000
H       48.472909     1.953178    50.000000
H       50.929566     2.298439    50.000000
H       52.454676     0.344982    50.000000
H       51.527091    -1.953178    50.000000
H       49.070434    -2.298439    50.000000
