59
Combined adjusted structure (Global Offset: [ 0.32849634  0.06785651 -2.63934278])
N        3.003653    -0.251785    10.009046
C        1.632370    -0.489146     9.711854
O        3.840047    -0.584889     9.171539
O        3.293217     0.268664    11.087474
C        0.648797    -0.096463    10.594140
C        1.219074    -1.108446     8.495177
C       -0.723658    -0.285467    10.372839
H        0.965015     0.391906    11.507528
C       -0.180812    -1.297877     8.271475
N        1.861990    -1.558232     7.440917
C       -1.195512    -0.894417     9.217360
H       -1.430299     0.064220    11.115576
N       -0.354619    -1.849279     7.099237
O        0.881533    -2.007877     6.597717
N       -2.484911    -1.105339     8.934080
H       -2.765234    -1.520807     8.057726
H       -3.213541    -0.799371     9.562809
C        0.422177    -0.382822    -3.336552
C        0.960749    -1.237085    -4.313180
C       -0.196766     0.789705    -3.793436
C        0.875758    -0.939255    -5.650441
H        1.428324    -2.158528    -3.982538
N        0.455004    -0.706786    -2.006732
C       -0.290380     1.122734    -5.123908
O       -0.761769     1.645530    -2.890232
C        0.242560     0.255972    -6.103475
H        1.267667    -1.648217    -6.366165
C       -0.111412     0.093044    -1.157237
H       -0.787045     2.047400    -5.379946
C       -0.754524     1.336480    -1.569758
N        0.142300     0.551336    -7.426314
C       -0.153383    -0.239577     0.269775
C       -1.362460     2.183302    -0.710375
C       -0.707647     1.638359    -7.901848
C        0.801329    -0.243641    -8.456990
C       -0.793204     0.626468     1.170888
C        0.420894    -1.423124     0.746379
C       -1.428243     1.891518     0.707079
H       -1.834679     3.088542    -1.072389
C        0.019633     2.977699    -7.969392
H       -1.599943     1.694761    -7.274117
H       -1.062415     1.357262    -8.897051
C       -0.056954    -1.394847    -8.971857
H        1.757645    -0.608143    -8.075119
H        1.047873     0.437406    -9.277191
C       -0.848445     0.299870     2.526975
C        0.360117    -1.734962     2.093778
H        0.908960    -2.087611     0.043116
O       -1.996459     2.645771     1.498756
H       -0.648603     3.755511    -8.350968
H        0.884662     2.912795    -8.636593
H        0.377727     3.285977    -6.983068
H       -0.343436    -2.068079    -8.160923
H        0.488580    -1.960965    -9.733165
H       -0.980449    -1.016361    -9.419092
C       -0.276239    -0.872402     2.990236
H       -1.350794     0.987106     3.198333
H        0.808569    -2.655709     2.452943
H       -0.322387    -1.121809     4.045300
