17

N                 -2.74425400   -1.61683800    1.39570000
C                 -1.37297100   -1.31154400    1.62254500
O                 -3.58064800   -0.76821600    1.69937300
O                 -3.03381800   -2.71277300    0.91320500
C                 -0.38939800   -2.20699600    1.26089300
C                 -0.95967500   -0.07399400    2.19900600
C                  0.98305700   -1.97923400    1.44205800
H                 -0.70561600   -3.13687200    0.80469800
C                  0.44021100    0.15618200    2.38051500
N                 -1.60259100    0.99532100    2.61172500
C                  1.45491100   -0.80320700    2.01031200
H                  1.68969800   -2.73372300    1.11850500
N                  0.61401800    1.34695000    2.89067000
O                 -0.62213400    1.85369900    3.03166900
N                  2.74431000   -0.51273800    2.21121900
H                  3.02463300    0.37758100    2.59584900
H                  3.47294000   -1.15176300    1.92737900

