80
Monomer Optimized at wB97xD2/cc-pVDZ IEFPCM Water
C                 -0.64801900   -0.76748300    0.86042200
C                 -1.39585400   -0.51698300   -0.33143400
C                 -1.32957500   -1.07315700    2.03062700
C                 -0.75606400   -0.19810000   -1.56903000
C                 -2.81459100   -0.58615000   -0.28449700
C                  0.82559500   -0.69174300    0.81233200
C                 -2.72917800   -1.13625600    2.06937500
H                 -0.78870900   -1.27160500    2.95352700
C                 -1.53991300    0.03538500   -2.69064000
C                  0.71757900   -0.12403200   -1.61759100
C                 -3.57548900   -0.33505900   -1.45090000
C                 -3.46902600   -0.89721900    0.93096300
C                  1.60855800   -0.91657500    1.93645500
C                  1.46558700   -0.37424100   -0.42575000
H                 -3.24351300   -1.37450000    2.99997500
C                 -2.93888300   -0.02885200   -2.63473900
H                 -1.08254100    0.27759600   -3.64745600
C                  1.39893800    0.18587600   -2.78678800
C                 -5.05269600   -0.39174600   -1.41632500
C                 -4.94427900   -0.96552900    0.99763900
C                  3.00694000   -0.84165600    1.88348300
H                  1.15069700   -1.15658100    2.89356900
C                  2.88424000   -0.30187400   -0.47203900
H                 -3.53428500    0.16299200   -3.52694800
C                  2.79804300    0.25861700   -2.82326900
H                  0.85804800    0.38363400   -3.70982900
N                 -5.64045800   -0.74293900   -0.19534900
O                 -5.75141300   -0.14973200   -2.38436500
O                 -5.55532100   -1.19929200    2.02580100
C                  3.64349000   -0.54078600    0.69819700
H                  3.60176400   -1.02085900    2.77872600
C                  3.53874000    0.01788100   -1.68559000
H                  3.31164800    0.50599300   -3.75189400
C                 -7.09456500   -0.83268700   -0.14789400
C                  5.11789700   -0.46696700    0.66405000
C                  5.01376700    0.10415200   -1.75048200
C                 -7.64730500    0.52886200    0.26800900
H                 -7.35264200   -1.60957100    0.57814300
H                 -7.43623700   -1.12001200   -1.14662700
N                  5.70893200   -0.18735300   -0.57011700
O                  5.81982900   -0.63563100    1.64856900
O                  5.62054500    0.40816300   -2.76112400
N                 -9.15014000    0.59867500    0.36862700
H                 -7.25633500    0.80065900    1.25657900
H                 -7.34552100    1.29416100   -0.45830700
C                  7.16397600   -0.14693300   -0.60165800
C                 -9.47461700    2.00558800    0.83655800
C                 -9.66349500   -0.39106700    1.36781000
C                 -9.78451700    0.35114700   -0.96443000
C                  7.65252500    1.22755100   -0.13089400
H                  7.47924200   -0.34309400   -1.63002000
H                  7.52170400   -0.95673800    0.04290900
C                -10.90470400    2.24580600    0.96487400
H                 -8.96913500    2.14554800    1.80143700
H                 -9.02738900    2.69605100    0.10921000
H                 -9.51489000   -1.40250500    0.97858900
H                 -9.11656500   -0.25679600    2.30775400
H                -10.73266400   -0.20794300    1.51720200
H                 -9.59672400   -0.68466100   -1.26147900
H                 -9.35280200    1.04478400   -1.69440700
H                -10.86250600    0.51772400   -0.87049600
N                  9.02975600    1.22444700    0.48434800
H                  7.68247100    1.93185100   -0.97070900
H                  6.97907400    1.63165800    0.63437400
C                -12.08839500    2.45983500    1.07736200
C                  9.47619600    2.64671100    0.63781900
C                 10.00266600    0.49815800   -0.39204200
C                  8.94493100    0.58292800    1.85618300
H                -13.14117300    2.65244200    1.17749100
H                  9.59726300    3.08351800   -0.35868000
H                 10.43054700    2.65543900    1.17503700
H                  8.71490000    3.19492500    1.20352700
H                  9.75141700   -0.56706100   -0.41289700
H                 11.00820200    0.63197800    0.01860000
H                  9.94389500    0.92500200   -1.39914400
C                 10.24683800    0.45133600    2.49416200
H                  8.46062600   -0.39456700    1.74581200
H                  8.27816000    1.21453800    2.45801600
C                 11.32029500    0.33948500    3.03702900
H                 12.27475000    0.23786500    3.52079400